NAME           TAHA13MPS
ROWS
  N OBJ
  L RESTR1
  L RESTR2
  L RESTR3
  L RESTR4
COLUMNS
    X         OBJ                -5.   RESTR1              6.
    X         RESTR2              1.   RESTR3             -1.
    Y         OBJ                -4.   RESTR1              4.
    Y         RESTR2              2.   RESTR3              1.
    Y         RESTR4              1.
RHS
    RHS1      RESTR1             24.
    RHS1      RESTR2              6.
    RHS1      RESTR3              1.
    RHS1      RESTR4              2.
ENDATA

